
Gurobi 11.0.1 (win64) logging started Mon May 13 15:37:34 2024

Set parameter LogFile to value "output/solver_log19.txt"
Gurobi Optimizer version 11.0.1 build v11.0.1rc0 (win64 - Windows 11.0 (22631.2))

CPU model: 11th Gen Intel(R) Core(TM) i7-1165G7 @ 2.80GHz, instruction set [SSE2|AVX|AVX2|AVX512]
Thread count: 4 physical cores, 8 logical processors, using up to 8 threads

Optimize a model with 2743 rows, 668 columns and 50915 nonzeros
Model fingerprint: 0x37249745
Variable types: 248 continuous, 420 integer (420 binary)
Coefficient statistics:
  Matrix range     [4e-01, 1e+05]
  Objective range  [1e+00, 1e+02]
  Bounds range     [1e+00, 1e+00]
  RHS range        [1e-02, 1e+05]

User MIP start produced solution with objective 75597.6 (0.01s)
User MIP start produced solution with objective 75597.6 (0.01s)
Loaded user MIP start with objective 75597.6

Presolve removed 275 rows and 236 columns
Presolve time: 0.06s
Presolved: 2468 rows, 432 columns, 47820 nonzeros
Variable types: 231 continuous, 201 integer (198 binary)

Root relaxation: objective 7.583555e+04, 666 iterations, 0.04 seconds (0.08 work units)

    Nodes    |    Current Node    |     Objective Bounds      |     Work
 Expl Unexpl |  Obj  Depth IntInf | Incumbent    BestBd   Gap | It/Node Time

     0     0 75835.5470    0   10 75597.5639 75835.5470  0.31%     -    0s
     0     0 75707.4250    0   20 75597.5639 75707.4250  0.15%     -    0s
     0     0 75707.4241    0    8 75597.5639 75707.4241  0.15%     -    0s
     0     0 75707.4237    0    8 75597.5639 75707.4237  0.15%     -    0s
     0     0 75707.4237    0   10 75597.5639 75707.4237  0.15%     -    0s
     0     0 75707.4237    0    8 75597.5639 75707.4237  0.15%     -    0s
     0     2 75707.4237    0    8 75597.5639 75707.4237  0.15%     -    0s

Cutting planes:
  Inf proof: 9

Explored 388 nodes (15385 simplex iterations) in 1.42 seconds (2.52 work units)
Thread count was 8 (of 8 available processors)

Solution count 2: 75597.6 75597.6 

Optimal solution found (tolerance 1.00e-04)
Best objective 7.559756391011e+04, best bound 7.559756391011e+04, gap 0.0000%
